c nIsolatedPIs 8
c maxPI 8
p cnf 21 40
c gate 9 3 7 0
3 -9 0
7 -9 0
-3 -7 9 0
c gate 10 4 8 0
4 -10 0
8 -10 0
-4 -8 10 0
c gate 11 -2 -6 0
-2 -11 0
-6 -11 0
2 6 11 0
c gate 12 -10 -11 0
-10 -12 0
-11 -12 0
10 11 12 0
c gate 13 -9 12 0
-9 -13 0
12 -13 0
9 -12 13 0
c gate 14 1 5 0
1 -14 0
5 -14 0
-1 -5 14 0
c gate 15 2 6 0
2 -15 0
6 -15 0
-2 -6 15 0
c gate 16 -14 -15 0
-14 -16 0
-15 -16 0
14 15 16 0
c gate 17 -3 -7 0
-3 -17 0
-7 -17 0
3 7 17 0
c gate 18 -4 -8 0
-4 -18 0
-8 -18 0
4 8 18 0
c gate 19 -17 -18 0
-17 -19 0
-18 -19 0
17 18 19 0
c gate 20 -16 19 0
-16 -20 0
19 -20 0
16 -19 20 0
c gate 21 13 20 0
13 -21 0
20 -21 0
-13 -20 21 0
c PO
21 0
